VRPTWMS/instances/mip/fuel/4/N4-C_DV100-C_SV30_F6_6_No_1.log

Gurobi 6.0.4 (win64) logging started 06/21/15 19:06:15

Read LP format model from file C:\MT\repository\VRPTWMS\instances\mip\fuel\N4-C_DV100-C_SV30_F6_6_No_1.lp
Reading time = 0.00 seconds
(null): 129 rows, 76 columns, 459 nonzeros
Optimize a model with 129 rows, 76 columns and 459 nonzeros
Model has 80 quadratic constraints
Coefficient statistics:
  Matrix range    [1e+00, 1e+06]
  Objective range [1e+05, 1e+07]
  Bounds range    [1e+00, 1e+06]
  RHS range       [1e+00, 1e+06]
Presolve removed 13 rows and 6 columns
Presolve time: 0.04s
Presolved: 283 rows, 161 columns, 1219 nonzeros
Variable types: 76 continuous, 85 integer (62 binary)
Found heuristic solution: objective 4.226340e+07

Root relaxation: objective 1.061788e+06, 37 iterations, 0.00 seconds

    Nodes    |    Current Node    |     Objective Bounds      |     Work
 Expl Unexpl |  Obj  Depth IntInf | Incumbent    BestBd   Gap | It/Node Time

     0     0 1061788.16    0   10 4.2263e+07 1061788.16  97.5%     -    0s
H    0     0                    3.181760e+07 1061788.16  96.7%     -    0s
     0     0 1074300.00    0   12 3.1818e+07 1074300.00  96.6%     -    0s
     0     0 1103197.14    0   18 3.1818e+07 1103197.14  96.5%     -    0s
     0     0 2211104.09    0   18 3.1818e+07 2211104.09  93.1%     -    0s
H    0     0                    2.218030e+07 2211104.09  90.0%     -    0s
     0     0 2211104.09    0   20 2.2180e+07 2211104.09  90.0%     -    0s
     0     0 2211104.09    0   17 2.2180e+07 2211104.09  90.0%     -    0s
     0     0 2211104.09    0   20 2.2180e+07 2211104.09  90.0%     -    0s
     0     0 2211104.09    0   20 2.2180e+07 2211104.09  90.0%     -    0s
     0     0 2211104.09    0   18 2.2180e+07 2211104.09  90.0%     -    0s
     0     2 2211104.09    0   18 2.2180e+07 2211104.09  90.0%     -    0s
*   56    10              11    2.209240e+07 1.1010e+07  50.2%  11.2    0s
*   65     7               7    2.151260e+07 1.1010e+07  48.8%  10.7    0s

Cutting planes:
  Learned: 1
  Gomory: 1
  Cover: 19
  Implied bound: 8
  Clique: 1
  MIR: 9
  Zero half: 1

Explored 146 nodes (1623 simplex iterations) in 0.11 seconds
Thread count was 2 (of 4 available processors)

Optimal solution found (tolerance 1.00e-04)
Best objective 2.151260000000e+07, best bound 2.151260000000e+07, gap 0.0%
k_c1	1000000.0
k_c2	960000.0
k_c3	1000000.0
k_c4	910000.0
k_dN	-0.0
o_1	0.0
o_2	-0.0
o_3	-0.0
o_4	0.0
p_1	0.0
p_2	0.0
p_3	-0.0
p_4	0.0
phi_c1	24760.0
phi_c2	28706.0
phi_c3	41437.0
phi_c4	17815.0
phi_dN	-0.0
pi_c1	-0.0
pi_c2	-0.0
pi_c3	-0.0
pi_c4	-0.0
pi_dN	-0.0
tauD_c1	500000.0
tauD_c2	509300.0000000001
tauD_c3	38250.0
tauD_c4	650000.0
tauD_d0	-0.0
tauD_dN	1000000.0
tauS_c1	0.0
tauS_c2	-0.0
tauS_c3	-0.0
tauS_c4	0.0
tauS_d0	-0.0
tauS_dN	-0.0
x_c1_dN	1.0
x_c2_c4	1.0
x_c3_c2	1.0
x_c4_dN	1.0
x_d0_c1	1.0
x_d0_c3	1.0
